Version identifier: 22.1.1.0 | 2022-11-28 | 9160aff4d
CPXPARAM_ClockType                               1
CPXPARAM_Read_DataCheck                          1
CPXPARAM_Threads                                 1
CPXPARAM_TimeLimit                               7200
CPXPARAM_MIP_Tolerances_AbsMIPGap                0
CPXPARAM_MIP_Tolerances_MIPGap                   0
CPXPARAM_MIP_Tolerances_Integrality              0
Tried aggregator 2 times.
MIP Presolve eliminated 85 rows and 29 columns.
MIP Presolve modified 18 coefficients.
Aggregator did 9 substitutions.
Reduced MIP has 305920 rows, 134493 columns, and 948742 nonzeros.
Reduced MIP has 134493 binaries, 0 generals, 0 SOSs, and 0 indicators.
Presolve time = 1.40 sec. (701.51 ticks)
Probing time = 0.16 sec. (37.47 ticks)
Tried aggregator 1 time.
Detecting symmetries...
Reduced MIP has 305920 rows, 134493 columns, and 948742 nonzeros.
Reduced MIP has 134493 binaries, 0 generals, 0 SOSs, and 0 indicators.
Presolve time = 1.80 sec. (701.64 ticks)
Probing time = 0.16 sec. (36.37 ticks)
Clique table members: 186039.
MIP emphasis: balance optimality and feasibility.
MIP search method: dynamic search.
Parallel mode: none, using 1 thread.
Root relaxation solution time = 7420.64 sec. (1709095.40 ticks)

        Nodes                                         Cuts/
   Node  Left     Objective  IInf  Best Integer    Best Bound    ItCnt     Gap

      0     0   1.00000e+37     0                 115950.0000   514309         

Root node processing (before b&c):
  Real time             = 7430.08 sec. (1712907.54 ticks)
Sequential b&c:
  Real time             =    0.00 sec. (0.00 ticks)
                          ------------
Total (root+branch&cut) = 7430.08 sec. (1712907.54 ticks)
Solution is infeasible.

---------------------
@@@ MIP_time_limit_infeasible
Traceback (most recent call last):
  File "/scratch/scherif/DiverseSAT-journal_sup/DiverseSAT_Supplementary_Experiments/experiment-1/cplex/jobs/../solvers/CPLEX-IW-SE.py", line 105, in <module>
    print(f">>> Benchmark {os.path.basename(cnf_file)} k {k} OPT {int(prob.solution.get_objective_value())}"
  File "/users/scherif/.local/lib/python3.9/site-packages/cplex/_internal/_subinterfaces.py", line 7211, in get_objective_value
    return CPX_PROC.getobjval(self._env._e, self._cplex._lp)
  File "/users/scherif/.local/lib/python3.9/site-packages/cplex/_internal/_procedural.py", line 2055, in getobjval
    check_status(env, status)
  File "/users/scherif/.local/lib/python3.9/site-packages/cplex/_internal/_procedural.py", line 249, in __call__
    raise CplexSolverError(error_string, env, status)
cplex.exceptions.errors.CplexSolverError: CPLEX Error  1217: No solution exists.
